Solver command line: []

Read LP format model from file C:\Users\wlhlm\AppData\Local\Temp\tmpd6_57z08.pyomo.lp
Reading time = 3.12 seconds
objective: 994224 rows, 875999 columns, 2194326 nonzeros
Set parameter MIPGap to value 0.03
Gurobi Optimizer version 12.0.1 build v12.0.1rc0 (win64 - Windows 11.0 (26100.2))

CPU model: Intel(R) Core(TM) Ultra 7 258V, instruction set [SSE2|AVX|AVX2]
Thread count: 8 physical cores, 8 logical processors, using up to 8 threads

Non-default parameters:
MIPGap  0.03

Optimize a model with 994224 rows, 875999 columns and 2194326 nonzeros
Model fingerprint: 0x2fe8b08c
Model has 8759 quadratic constraints
Variable types: 753360 continuous, 122639 integer (105120 binary)
Coefficient statistics:
  Matrix range     [6e-03, 2e+02]
  QMatrix range    [1e+00, 1e+00]
  Objective range  [1e-02, 3e+02]
  Bounds range     [1e+00, 3e+00]
  RHS range        [8e-05, 1e+04]
Presolve removed 794830 rows and 661069 columns
Presolve time: 1.42s
Presolved: 199394 rows, 214930 columns, 631638 nonzeros
Variable types: 142933 continuous, 71997 integer (63238 binary)
Performing another presolve...
Presolve removed 61314 rows and 61315 columns (presolve time = 7s)...
Presolve removed 61314 rows and 61315 columns
Presolve time: 7.21s
Deterministic concurrent LP optimizer: primal and dual simplex
Showing primal log only...


Root simplex log...

Iteration    Objective       Primal Inf.    Dual Inf.      Time
       0    5.4764113e+07   1.310277e+07   4.941067e+13     10s
Concurrent spin time: 0.02s

Solved with dual simplex

Root simplex log...

Iteration    Objective       Primal Inf.    Dual Inf.      Time
   63100    4.1100000e+07   0.000000e+00   0.000000e+00     14s
Extra simplex iterations after uncrush: 1

Root relaxation: objective 4.110000e+07, 63100 iterations, 4.93 seconds (6.56 work units)
Total elapsed time = 14.54s (DegenMoves)
Total elapsed time = 15.31s (DegenMoves)

    Nodes    |    Current Node    |     Objective Bounds      |     Work
 Expl Unexpl |  Obj  Depth IntInf | Incumbent    BestBd   Gap | It/Node Time

     0     0 4.1100e+07    0  774          - 4.1100e+07      -     -   19s
     0     0 4.1107e+07    0  812          - 4.1107e+07      -     -   24s
     0     0 4.1109e+07    0  812          - 4.1109e+07      -     -   26s
     0     0 4.1109e+07    0  819          - 4.1109e+07      -     -   26s
H    0     0                    5.394303e+07 4.1109e+07  23.8%     -   27s
     0     0 4.1113e+07    0  674 5.3943e+07 4.1113e+07  23.8%     -   29s
H    0     0                    5.393199e+07 4.1113e+07  23.8%     -   30s
     0     0 4.1114e+07    0  630 5.3932e+07 4.1114e+07  23.8%     -   30s
     0     0 4.1114e+07    0  624 5.3932e+07 4.1114e+07  23.8%     -   30s
     0     0 4.1114e+07    0  621 5.3932e+07 4.1114e+07  23.8%     -   31s
     0     0 4.1114e+07    0  623 5.3932e+07 4.1114e+07  23.8%     -   31s
     0     0 4.1114e+07    0  559 5.3932e+07 4.1114e+07  23.8%     -   35s
     0     0 4.1115e+07    0  540 5.3932e+07 4.1115e+07  23.8%     -   37s
     0     0 4.1115e+07    0  548 5.3932e+07 4.1115e+07  23.8%     -   37s
     0     0 4.1115e+07    0  552 5.3932e+07 4.1115e+07  23.8%     -   37s
     0     0 4.1116e+07    0  496 5.3932e+07 4.1116e+07  23.8%     -   41s
     0     0 4.1116e+07    0  516 5.3932e+07 4.1116e+07  23.8%     -   42s
     0     0 4.1116e+07    0  523 5.3932e+07 4.1116e+07  23.8%     -   43s
     0     0 4.1116e+07    0  525 5.3932e+07 4.1116e+07  23.8%     -   43s
     0     0 4.1116e+07    0  522 5.3932e+07 4.1116e+07  23.8%     -   44s
     0     0 4.1116e+07    0  528 5.3932e+07 4.1116e+07  23.8%     -   45s
     0     0 4.1116e+07    0  531 5.3932e+07 4.1116e+07  23.8%     -   46s
H    0     0                    5.370248e+07 4.1116e+07  23.4%     -   49s
H    0     0                    5.370097e+07 4.1116e+07  23.4%     -   49s
     0     0 4.1116e+07    0  535 5.3701e+07 4.1116e+07  23.4%     -   49s
     0     0 4.1116e+07    0  532 5.3701e+07 4.1116e+07  23.4%     -   50s
     0     0 4.1116e+07    0  422 5.3701e+07 4.1116e+07  23.4%     -   52s
     0     2 4.1116e+07    0  402 5.3701e+07 4.1116e+07  23.4%     -   56s
    23    56 4.1118e+07    5  449 5.3701e+07 4.1116e+07  23.4%   102   61s
H   42    56                    5.359669e+07 4.1116e+07  23.3%  75.4   61s
H   46    56                    5.359488e+07 4.1116e+07  23.3%  73.2   61s
H  128   216                    5.291633e+07 4.1116e+07  22.3%  35.3   80s
H  197   216                    5.278230e+07 4.1116e+07  22.1%  25.4   80s
   215   689 4.1118e+07   22  416 5.2782e+07 4.1116e+07  22.1%  23.8   89s
   688   849 4.1118e+07   56  410 5.2782e+07 4.1116e+07  22.1%  11.8   99s
   848  1713 4.1118e+07   70  409 5.2782e+07 4.1116e+07  22.1%  10.9  110s
H 1395  1713                    4.825402e+07 4.1116e+07  14.8%   7.3  110s
  1712  2389 4.1119e+07  173  412 4.8254e+07 4.1116e+07  14.8%   6.4  118s
  2388  2799 4.1119e+07  228  410 4.8254e+07 4.1116e+07  14.8%   6.2  124s
  2798  2807 4.1120e+07  272  413 4.8254e+07 4.1116e+07  14.8%   6.1  141s
H 2800  2807                    4.797191e+07 4.1116e+07  14.3%   6.1  141s
  2806  2975 4.1120e+07  273  413 4.7972e+07 4.1116e+07  14.3%   6.1  162s
H 2826  2975                    4.764541e+07 4.1116e+07  13.7%   6.1  162s
H 2931  2975                    4.760009e+07 4.1116e+07  13.6%   5.9  162s
  2974  3622 4.1120e+07  292  414 4.7600e+07 4.1116e+07  13.6%   5.9  169s
  3621  4195 4.1122e+07  360  387 4.7600e+07 4.1116e+07  13.6%   5.7  175s
  4194  4203 4.1120e+07  414  379 4.7600e+07 4.1116e+07  13.6%   5.8  196s
H 4200  4203                    4.551892e+07 4.1116e+07  9.67%   5.8  196s
H 4202  4211                    4.315003e+07 4.1116e+07  4.71%   5.8  207s
  4210  4715 4.1121e+07  416  381 4.3150e+07 4.1116e+07  4.71%   5.8  213s
  4714  5166 4.1122e+07  463  349 4.3150e+07 4.1116e+07  4.71%   5.8  218s
  5165  5845 4.1122e+07  511  345 4.3150e+07 4.1116e+07  4.71%   5.8  225s
H 5844  6060                    4.306163e+07 4.1116e+07  4.52%   5.7  246s
H 5856  6060                    4.301344e+07 4.1116e+07  4.41%   5.6  246s
  6059  6787 4.1122e+07  593  336 4.3013e+07 4.1116e+07  4.41%   5.6  252s
  6786  7262 4.1123e+07  681  320 4.3013e+07 4.1116e+07  4.41%   5.4  257s
  7262  7263 4.1119e+07  198 18480 4.3013e+07 4.1116e+07  4.41%   5.4  284s
  7264  7264 4.1121e+07  487  719 4.3013e+07 4.1116e+07  4.41%   5.4  297s
  7265  7265 4.1123e+07  655  609 4.3013e+07 4.1116e+07  4.41%   5.4  300s
  7269  7268 4.1121e+07  691  493 4.3013e+07 4.1116e+07  4.41%   5.4  306s
H 7269  6904                    4.290197e+07 4.1116e+07  4.16%   5.4  308s
  7271  6905 4.1123e+07  609  474 4.2902e+07 4.1116e+07  4.16%   5.4  311s
  7274  6907 4.1121e+07  563  477 4.2902e+07 4.1117e+07  4.16%   5.4  315s
  7277  6909 4.1118e+07  331  486 4.2902e+07 4.1117e+07  4.16%   5.3  320s
  7279  6910 4.1119e+07  453  469 4.2902e+07 4.1117e+07  4.16%   5.3  325s
H 7279  6564                    4.289625e+07 4.1117e+07  4.15%   5.3  327s
H 7279  6236                    4.289174e+07 4.1117e+07  4.14%   5.3  327s
H 7279  5924                    4.284089e+07 4.1117e+07  4.02%   5.3  327s
  7282  5926 4.1118e+07  103  504 4.2841e+07 4.1117e+07  4.02%   5.3  330s
H 7282  5629                    4.283703e+07 4.1117e+07  4.01%   5.3  333s
H 7282  5347                    4.283703e+07 4.1117e+07  4.01%   5.3  333s
H 7282  5079                    4.283274e+07 4.1117e+07  4.00%   5.3  333s
  7285  5081 4.1118e+07  259  503 4.2833e+07 4.1117e+07  4.00%   5.3  337s
  7287  5083 4.1119e+07  446  499 4.2833e+07 4.1118e+07  4.00%   5.3  340s
H 7288  4829                    4.279737e+07 4.1118e+07  3.93%   5.3  341s
  7290  4831 4.1118e+07   66  485 4.2797e+07 4.1118e+07  3.93%   5.3  345s
  7294  4833 4.1120e+07  267  495 4.2797e+07 4.1118e+07  3.92%   5.3  350s
  7297  4835 4.1120e+07  540  530 4.2797e+07 4.1118e+07  3.92%   5.3  356s
H 7297  4592                    4.275406e+07 4.1118e+07  3.83%   5.3  361s
  7304  4598 4.1120e+07  412 18480 4.2754e+07 4.1118e+07  3.83%  19.7  365s
H 7305  4369                    4.272060e+07 4.1118e+07  3.75%  19.7  378s
  7307  4370 4.1120e+07  373  626 4.2721e+07 4.1118e+07  3.75%  19.7  382s
  7309  4371 4.1121e+07  541  502 4.2721e+07 4.1118e+07  3.75%  19.7  385s
  7314  4375 4.1119e+07  116  497 4.2721e+07 4.1118e+07  3.75%  19.7  392s
  7316  4376 4.1119e+07  176  484 4.2721e+07 4.1118e+07  3.75%  19.7  395s
  7319  4378 4.1118e+07  353  519 4.2721e+07 4.1118e+07  3.75%  19.6  400s
  7323  4381 4.1118e+07  179  501 4.2721e+07 4.1118e+07  3.75%  19.6  406s
H 7325  4162                    4.268461e+07 4.1118e+07  3.67%  19.6  409s
H 7325  3954                    4.268456e+07 4.1118e+07  3.67%  19.6  409s
H 7325  3756                    4.268456e+07 4.1118e+07  3.67%  19.6  409s
H 7326  3568                    4.268444e+07 4.1118e+07  3.67%  19.6  410s
H 7326  3390                    4.268444e+07 4.1118e+07  3.67%  19.6  412s
H 7326  3220                    4.268444e+07 4.1118e+07  3.67%  19.6  412s
H 7326  3058                    4.267861e+07 4.1118e+07  3.66%  19.6  412s
H 7326  2905                    4.267842e+07 4.1118e+07  3.66%  19.6  412s
H 7326  2759                    4.267842e+07 4.1118e+07  3.66%  19.6  412s
  7330  2761 4.1119e+07  160  511 4.2678e+07 4.1118e+07  3.66%  19.6  416s
H 7330  2623                    4.267401e+07 4.1118e+07  3.65%  19.6  416s
H 7333  2493                    4.260927e+07 4.1118e+07  3.50%  19.6  419s
  7336  2495 4.1118e+07   35  415 4.2609e+07 4.1118e+07  3.50%  19.6  430s
H 7337  2373                    4.259327e+07 4.1118e+07  3.46%  33.8  434s
  7338  2375 4.1118e+07   21  398 4.2593e+07 4.1118e+07  3.46%  33.9  435s
  7360  2419 4.1122e+07   25  429 4.2593e+07 4.1118e+07  3.46%  34.1  440s
H 7363  2299                    4.259265e+07 4.1118e+07  3.46%  34.1  440s
H 7371  2183                    4.259172e+07 4.1118e+07  3.46%  34.0  440s
H 7375  2074                    4.259032e+07 4.1118e+07  3.46%  34.0  441s
H 7387  1968                    4.258943e+07 4.1118e+07  3.46%  34.0  441s
H 7433  1906                    4.254423e+07 4.1118e+07  3.35%  33.9  450s
  7488  2024 4.1122e+07   34  414 4.2544e+07 4.1118e+07  3.35%  33.9  458s
H 7578  2038                    4.251120e+07 4.1118e+07  3.28%  33.7  467s
  7714  2300 4.1122e+07   48  371 4.2511e+07 4.1118e+07  3.28%  33.3  480s
  8030  2679 4.1123e+07   68  333 4.2511e+07 4.1118e+07  3.28%  32.8  500s
H 8543  2999                    4.251044e+07 4.1118e+07  3.28%  31.5  522s
H 8685  2869                    4.250986e+07 4.1118e+07  3.27%  31.2  522s
H 8766  2763                    4.250964e+07 4.1118e+07  3.27%  31.0  522s
H 8837  2664                    4.250941e+07 4.1118e+07  3.27%  30.9  522s
  9136  2572 4.1126e+07  136  272 4.2509e+07 4.1118e+07  3.27%  30.3  573s
H 9144  3065                    4.245284e+07 4.1118e+07  3.14%  30.3  616s
H 9226  2969                    4.243803e+07 4.1118e+07  3.11%  30.1  616s
H 9282  2886                    4.242723e+07 4.1118e+07  3.09%  30.0  616s
H 9594  2721                    4.242684e+07 4.1118e+07  3.09%  29.4  616s
  9710  3439 4.1124e+07  178  262 4.2427e+07 4.1118e+07  3.09%  29.2  633s
 10475  3810 4.1125e+07  229  253 4.2427e+07 4.1118e+07  3.09%  28.0  647s
 11109  3808 infeasible  264      4.2427e+07 4.1118e+07  3.09%  27.5  696s
H11114  3808                    4.240166e+07 4.1118e+07  3.03%  27.5  696s
H11219  4005                    4.232643e+07 4.1118e+07  2.86%  27.6  756s
H11314  4005                    4.230416e+07 4.1118e+07  2.80%  27.7  756s

Cutting planes:
  Learned: 1
  Gomory: 266
  Cover: 283
  Implied bound: 108
  Projected implied bound: 136
  Clique: 3
  MIR: 1450
  Mixing: 17
  Flow cover: 819
  Flow path: 7
  RLT: 47
  Relax-and-lift: 165

Explored 11422 nodes (400159 simplex iterations) in 757.27 seconds (556.47 work units)
Thread count was 8 (of 8 available processors)

Solution count 10: 4.23042e+07 4.23264e+07 4.24017e+07 ... 4.25099e+07

Optimal solution found (tolerance 3.00e-02)
Best objective 4.230416298971e+07, best bound 4.111795448224e+07, gap 2.8040%

